<number of tasks>
20

<cycle time>
1000

<order strength>
0,553


<task times>
1 231
2 292
3 262
4 456
5 336
6 215
7 27
8 231
9 41
10 435
11 125
12 105
13 195
14 510
15 140
16 50
17 501
18 113
19 461
20 126

<precedence relations>
1,11
2,11
3,5
4,6
5,7
5,9
5,10
6,8
7,11
8,11
9,11
10,12
11,13
11,14
11,15
11,16
11,17
14,19
15,20
16,18

<end>
